16 32
1 2 3
1 5 3
2 3 4
2 6 1
3 4 3
3 7 2
4 8 1
5 6 1
5 9 1
6 7 1
6 10 3
7 8 3
7 11 4
8 12 1
9 10 1
9 13 5
10 11 5
10 14 2
11 12 5
11 15 2
12 16 4
13 14 1
14 15 3
15 16 2
1 13 5
2 14 4
3 15 3
4 16 4
1 4 2
5 8 2
9 12 3
13 16 3
